50 1303
396 792 693 297 364 495 637 364 273 455 198 990 495 546 728 546 198 273 792 273 990 792 819 792 546 273 91 495 910 273 792 198 819 693 455 819 728 182 273 728 637 455 819 396 792 693 819 891 910 182 
332 664 581 249 372 415 651 372 279 465 166 830 415 558 744 558 166 279 664 279 830 664 837 664 558 279 93 415 930 279 664 166 837 581 465 837 744 186 279 744 651 465 837 332 664 581 837 747 930 186 
